1000
1000
700
700
700
700
699
699
699
697
696
696
696
695
695
694
693
693
693
693
692
691
691
691
690
690
689
689
689
688
688
687
686
686
686
686
684
684
684
683
683
683
683
682
682
681
681
681
680
680
680
679
679
679
678
678
677
677
676
676
674
674
673
673
672
672
670
669
669
668
668
667
667
666
666
665
665
664
662
661
660
660
659
659
658
658
657
656
656
656
655
654
654
654
653
651
649
647
647
646
646
646
646
646
645
645
645
645
644
642
641
640
639
638
638
638
637
637
637
636
635
635
634
634
634
634
634
633
631
631
631
630
630
629
628
628
627
627
627
624
624
624
623
623
623
623
622
620
620
619
619
619
618
618
617
617
616
615
615
615
614
613
612
612
612
612
612
611
609
609
609
608
608
607
607
606
606
605
605
605
605
603
602
602
602
602
602
602
601
601
601
600
600
600
598
597
595
595
595
594
594
594
594
594
593
593
593
592
592
589
589
589
588
587
586
583
583
582
582
582
581
581
580
579
579
579
579
578
577
577
576
575
574
574
574
573
572
572
571
571
570
570
570
569
569
568
568
568
565
565
565
565
563
562
562
562
562
562
561
560
560
559
559
558
557
557
556
556
556
556
555
555
555
554
554
554
554
554
552
551
551
551
550
550
550
550
550
550
549
549
549
549
549
549
547
546
546
546
546
546
545
544
544
543
542
542
542
542
541
540
540
539
539
538
538
538
537
537
535
534
534
534
533
533
533
533
533
533
532
532
532
532
532
531
531
530
529
529
528
528
527
527
527
526
525
524
524
523
523
523
522
521
521
521
521
521
520
520
519
518
518
518
518
518
517
517
517
516
516
516
515
515
514
514
514
514
514
514
513
513
512
510
510
510
509
509
508
507
507
507
507
506
504
504
503
503
503
502
502
502
502
501
500
500
498
498
498
498
498
498
497
497
496
496
496
495
495
495
495
495
494
494
494
494
494
493
493
492
491
491
490
490
490
489
489
489
488
488
487
487
485
485
485
484
483
483
482
482
480
479
479
478
478
477
477
477
477
477
476
476
475
475
474
473
473
473
473
472
471
471
470
470
470
470
469
468
468
465
465
465
465
464
464
464
464
464
464
464
463
463
463
462
462
462
461
461
460
460
459
458
458
458
458
457
457
456
455
454
454
452
451
451
451
449
448
448
447
447
446
446
446
444
443
443
443
442
441
441
441
440
440
440
438
437
436
435
435
435
434
433
433
432
432
431
431
430
429
429
429
429
428
428
427
426
426
425
423
422
422
422
422
421
421
419
419
418
417
417
416
415
415
415
414
414
414
414
413
412
412
411
410
410
409
408
408
408
405
405
404
403
403
402
402
402
401
401
401
401
401
401
400
397
397
396
396
396
395
394
394
392
390
389
389
388
388
387
386
386
386
386
386
385
385
384
384
384
382
381
381
380
380
379
378
378
377
377
377
376
376
375
374
373
373
373
373
372
372
372
372
371
371
370
370
368
368
367
367
366
365
365
364
364
364
363
362
361
361
361
361
361
360
359
359
358
358
357
357
357
357
357
357
356
356
356
356
356
355
354
354
354
352
352
352
351
351
350
350
349
348
348
348
348
347
347
347
347
346
346
346
346
345
345
345
344
343
343
342
342
342
341
341
340
340
339
339
338
338
338
338
338
337
337
337
336
336
336
335
334
333
333
333
333
333
333
333
330
330
330
329
329
328
328
328
327
327
327
326
326
326
326
325
325
324
324
323
323
323
323
322
321
321
320
320
319
319
318
318
317
316
316
315
315
314
314
314
313
311
311
311
310
310
308
308
308
307
307
306
305
305
304
304
303
303
303
302
301
300
300
299
299
299
299
299
299
298
298
298
298
298
298
297
297
296
295
295
295
294
294
294
293
292
291
291
291
290
290
289
287
287
286
286
285
285
284
284
284
283
283
283
283
281
281
281
280
279
278
277
277
277
276
276
276
275
275
274
274
274
274
273
271
269
269
269
269
269
269
269
268
268
267
267
265
265
265
264
264
263
263
261
261
261
261
261
260
260
258
258
257
256
256
255
255
255
254
254
253
253
253
252
252
251
251
251
250
250
249
249
249
248
246
246
243
243
243
243
241
241
241
239
239
238
238
238
238
236
236
235
235
235
234
234
234
233
232
232
231
231
230
230
230
228
228
228
227
227
226
225
225
224
224
223
223
223
222
222
221
221
220
220
220
218
217
217
215
214
212
212
212
211
210
210
210
209
209
209
208
208
208
208
208
207
207
206
206
205
204
203
203
202
202
201
200
